NAME : CC30.1087745.tour
COMMENT : Cost = 0_1087745
COMMENT : Found by LKH [Keld Helsgaun] Sun Apr 23 15:14:36 2017
TYPE : TOUR
DIMENSION : 63
TOUR_SECTION
1
7
37
18
8
38
48
13
43
5
35
3
33
30
60
22
52
29
31
59
61
9
39
62
28
58
14
44
4
34
6
36
11
41
23
53
15
45
12
42
17
26
47
56
25
55
19
49
63
20
50
16
46
27
57
21
51
10
40
24
2
54
32
-1
EOF
